48899836956019332745010,5,1,2,01,14,1,2,02,11,1,2,06,12,1,2,011,12,1,2,015,4,1,2,015,1,1,2,02,10,1,2,012,13,1,2,01,15,1,2,015,10,1,2,09,1,1,2,08,2,1,2,02,8,1,2,012,5,1,2,08,1,1,2,011,3,1,2,07,6,1,2,05,9,1,2,010,3,1,2,05,8,1,2,012,4,1,2,010,15,1,2,09,3,1,2,09,6,1,2,010,15,1,2,015,14,1,2,011,6,1,2,08,3,1,2,010,10,1,2,06,4,1,2,05,15,1,2,014,8,1,2,08,15,1,2,09,15,1,2,08,2,1,2,01,4,1,2,013,1,1,2,013,9,1,2,010,13,1,2,05,9,1,2,010,15,1,2,015,6,1,2,07,6,1,2,05,1,1,2,09,13,1,2,01,7,1,2,02,7,1,2,010,3,1,2,01,11,1,2,0